p cnf 7230 16
-4190 -4202 -4770 5276 0
-4200 -4800 -5281 0
4200 -5282 0
-4856 5284 0
5283 -5284 0
4856 -5283 0
5281 5282 0
5279 5280 0
4816 -5280 0
-4816 -5279 0
5277 5278 0
4814 -5278 0
-4814 -5277 0
4800 -5282 0
5275 -5276 0
-5275 5276 0
